proyfinal/src/viki/013/experimentInOfficeAgust.take6.output/85e7551c-ba2c-4890-83df-461b52a0de93.als.out
Reading from standard input... Use '--help' for help.
============================[ Problem Statistics ]=============================
|                                                                             |
|  Number of variables:         87638                                         |
|  Number of clauses:          161767                                         |
|  Parse time:                   0.03 s                                       |
|                                                                             |
============================[ Search Statistics ]==============================
| Conflicts |          ORIGINAL         |          LEARNT          | Progress |
|           |    Vars  Clauses Literals |    Limit  Clauses Lit/Cl |          |
===============================================================================
|       100 |   63301   108485   271043 |    39777      100     34 | 27.770 % |
|       250 |   63301   108485   271043 |    43755      250     72 | 27.770 % |
|       475 |   63301   108485   271043 |    48131      475    117 | 27.770 % |
|       812 |   54422    82099   205907 |    52944      808    111 | 37.901 % |
|      1318 |   54329    81979   205625 |    58238     1310     82 | 38.007 % |
|      2077 |   54328    81758   205053 |    64062     2068     71 | 38.009 % |
|      3216 |   53359    78503   196536 |    70468     2919     67 | 39.114 % |
|      4924 |   53310    78364   196211 |    77515     4621     64 | 39.170 % |
|      7486 |   53253    78028   195467 |    85267     7157     65 | 39.235 % |
|     11330 |   53222    77915   195206 |    93794    10991     64 | 39.271 % |
|     17096 |   52357    74372   186724 |   103173    15804     60 | 40.258 % |
===============================================================================
restarts              : 63
conflicts             : 17319          (8552 /sec)
decisions             : 64258          (0.00 % random) (31731 /sec)
propagations          : 22062916       (10894665 /sec)
conflict literals     : 1014192        (42.89 % deleted)
Memory used           : 37.21 MB
CPU time              : 2.02511 s

INDETERMINATE
